30
3 1 3
3 2 5
4 0 2
4 2 5
4 3 4
5 0 1
5 2 1
5 3 5
6 1 3
6 2 2
6 3 2
6 4 4
6 5 2
7 2 3
7 3 4
7 5 1
8 0 2
8 1 5
8 2 3
8 4 1
8 6 4
8 7 1
9 0 5
9 2 5
9 3 2
9 7 4
10 0 2
10 2 2
10 3 2
10 4 4
10 5 5
10 7 2
11 0 5
11 2 2
11 4 5
11 5 4
11 10 3
12 1 4
12 3 2
12 5 5
12 6 1
12 7 5
12 9 5
13 0 1
13 2 1
13 3 1
13 6 3
13 7 5
13 8 5
14 3 1
14 6 1
14 9 1
14 11 2
14 12 3
15 0 4
15 1 1
15 2 4
15 8 3
15 9 2
15 10 3
15 12 4
16 0 5
16 2 2
16 7 5
16 8 3
16 10 5
16 11 1
16 13 5
16 14 3
16 15 3
17 2 1
17 3 5
17 5 3
17 7 2
17 9 4
17 11 1
17 13 2
17 16 5
18 0 2
18 1 4
18 3 1
18 4 3
18 5 5
18 10 3
18 11 4
18 13 4
18 14 5
18 17 5
19 0 2
19 2 1
19 3 1
19 7 2
19 8 4
19 9 2
19 10 3
19 11 2
19 13 1
19 17 5
20 1 4
20 3 1
20 5 2
20 6 3
20 7 2
20 8 4
20 12 4
20 15 3
20 17 2
20 18 1
21 1 2
21 3 4
21 4 5
21 7 4
21 8 3
21 13 5
21 15 1
21 16 3
21 18 1
21 20 4
22 0 4
22 3 2
22 5 4
22 6 1
22 7 5
22 8 4
22 10 1
22 12 5
22 13 2
22 16 5
22 17 3
22 18 2
23 1 2
23 2 2
23 7 4
23 8 3
23 11 1
23 14 5
23 15 4
23 18 5
23 19 2
23 21 4
23 22 3
24 4 2
24 6 1
24 9 3
24 10 2
24 12 4
24 17 5
24 19 4
24 21 1
24 23 2
25 0 1
25 1 4
25 2 4
25 4 4
25 5 3
25 6 4
25 7 3
25 8 5
25 11 4
25 12 2
25 13 2
25 18 3
25 19 4
25 23 3
25 24 5
26 0 4
26 5 3
26 10 4
26 11 5
26 15 5
26 17 1
26 19 4
26 23 4
26 25 5
27 1 4
27 3 2
27 4 3
27 5 5
27 6 2
27 8 1
27 9 2
27 10 3
27 14 5
27 15 4
27 16 2
27 19 4
27 20 1
27 21 3
27 22 2
27 24 3
27 25 5
28 1 4
28 2 3
28 3 5
28 4 2
28 7 3
28 8 1
28 9 4
28 10 4
28 13 5
28 14 3
28 16 5
28 18 2
28 25 3
28 26 2
28 27 3
29 2 5
29 4 3
29 5 5
29 7 1
29 9 3
29 10 5
29 12 3
29 13 3
29 14 1
29 15 2
29 18 1
29 19 5
29 22 2
29 23 5
29 24 4
29 28 1
